182 99 40 67 160 186 178 103 143 33 140 52 104 37 36 8 119 82 51 192 47 185 115 129 5 134 9 151 137 90 96 118 100 175 127 92 84 73 29 17 196 111 131 108 80 41 12 23 75 69 38 136 91 176 39 66 25 45 147 106 114 163 6 72 121 19 124 74 70 57 110 195 2 157 0 85 83 43 197 44 109 167 138 193 154 78 168 132 191 60 133 183 188 117 46 94 174 53 16 97 21 181 64 89 42 130 194 171 122 48 61 15 199 148 155 81 198 169 135 172 165 55 139 170 126 76 107 68 22 4 13 102 128 164 189 156 116 93 63 162 158 34 32 49 11 142 141 177 50 105 184 146 65 98 77 190 179 54 71 125 101 87 18 150 26 28 1 86 152 123 159 35 144 10 161 62 14 7 145 180 173 112 3 95 58 149 30 113 187 56 153 88 20 120 31 24 59 166 79 27 

